num_staff = 10;
work_load = [100, 10, 100, 100, 10, 100, 10, 100, 10, 100];
num_days = 100;
unavailable = [
    {3, 4, 5, 6, 7, 8, 9, 10, 11, 12, 13, 14, 15, 16, 17, 18},
    {},
    {},
    {},
    {},
    {},
    {},
    {},
    {},
    {}
];
fixed = [
    {1, 2, 21, 22, 41, 42, 61, 62, 71},
    {3, 4, 23, 24, 43, 44},
    {5, 6, 25, 26, 45, 46, 63, 64, 72},
    {7, 8, 27, 28, 47, 48},
    {9, 10, 29, 30, 49, 50, 65, 66, 73},
    {11, 12, 31, 32, 51, 52},
    {13, 14, 33, 34, 53, 54, 67, 68, 74},
    {15, 16, 35, 36, 55, 56},
    {17, 18, 37, 38, 57, 58, 69, 70, 76},
    {19, 20, 39, 40, 59, 60}
];
weekend_offset = 2;
adj_days_str = 1;
wed_before_weekend_str = 1;
